benchmarks_CP/INST_49x49/50/inst49x49_50_88.dzn
S=7;
start=[|
-1,	36,	30,	17,	-1,	-1,	-1,	47,	-1,	-1,	-1,	-1,	-1,	46,	29,	27,	35,	10,	7,	-1,	39,	-1,	26,	21,	-1,	-1,	-1,	48,	-1,	4,	-1,	3,	23,	-1,	41,	-1,	-1,	-1,	-1,	-1,	1,	14,	-1,	-1,	44,	-1,	-1,	-1,	-1|
-1,	49,	-1,	5,	-1,	1,	-1,	29,	4,	-1,	-1,	8,	28,	-1,	-1,	19,	-1,	-1,	-1,	46,	22,	-1,	-1,	-1,	-1,	-1,	39,	-1,	-1,	10,	-1,	-1,	-1,	-1,	-1,	24,	6,	-1,	-1,	-1,	16,	33,	-1,	9,	21,	-1,	-1,	2,	26|
-1,	19,	-1,	-1,	23,	4,	-1,	-1,	22,	12,	-1,	-1,	-1,	5,	-1,	-1,	41,	-1,	32,	31,	18,	-1,	37,	-1,	-1,	44,	-1,	-1,	25,	2,	-1,	-1,	34,	-1,	-1,	38,	30,	-1,	-1,	10,	35,	-1,	-1,	-1,	17,	-1,	-1,	-1,	33|
-1,	9,	11,	38,	-1,	-1,	32,	-1,	-1,	-1,	-1,	-1,	-1,	-1,	-1,	16,	48,	2,	4,	-1,	-1,	49,	-1,	24,	41,	-1,	-1,	-1,	-1,	43,	46,	21,	-1,	-1,	22,	-1,	-1,	20,	26,	-1,	-1,	-1,	-1,	10,	-1,	28,	1,	45,	-1|
2,	-1,	-1,	-1,	12,	-1,	10,	16,	-1,	13,	24,	-1,	-1,	-1,	6,	-1,	25,	-1,	28,	-1,	26,	-1,	-1,	22,	23,	5,	43,	34,	-1,	-1,	29,	-1,	15,	-1,	49,	48,	-1,	-1,	-1,	27,	-1,	21,	31,	30,	20,	46,	-1,	32,	-1|
-1,	-1,	-1,	-1,	-1,	22,	-1,	44,	3,	-1,	42,	-1,	-1,	-1,	43,	37,	-1,	21,	1,	-1,	-1,	-1,	-1,	-1,	4,	19,	14,	12,	31,	-1,	-1,	-1,	24,	26,	-1,	-1,	41,	8,	28,	-1,	39,	2,	-1,	15,	48,	-1,	-1,	40,	-1|
26,	20,	-1,	41,	37,	-1,	-1,	10,	34,	-1,	43,	-1,	15,	21,	-1,	-1,	-1,	17,	23,	30,	-1,	-1,	29,	33,	42,	18,	-1,	11,	36,	-1,	-1,	-1,	8,	-1,	1,	-1,	-1,	47,	-1,	-1,	-1,	-1,	-1,	12,	-1,	-1,	22,	-1,	25|
28,	33,	-1,	-1,	-1,	-1,	-1,	39,	23,	-1,	21,	-1,	45,	31,	44,	17,	-1,	-1,	15,	1,	-1,	29,	47,	16,	-1,	2,	-1,	-1,	-1,	-1,	5,	-1,	-1,	-1,	-1,	-1,	-1,	42,	4,	-1,	-1,	9,	22,	34,	40,	6,	14,	37,	43|
11,	-1,	-1,	-1,	-1,	42,	-1,	22,	-1,	3,	-1,	44,	47,	1,	7,	-1,	37,	-1,	5,	-1,	-1,	35,	-1,	-1,	9,	30,	-1,	8,	-1,	36,	-1,	-1,	39,	6,	-1,	20,	-1,	46,	-1,	15,	-1,	25,	-1,	17,	-1,	26,	33,	19,	-1|
34,	-1,	2,	-1,	8,	-1,	-1,	12,	30,	10,	-1,	-1,	-1,	-1,	-1,	21,	-1,	-1,	-1,	20,	29,	-1,	-1,	32,	-1,	33,	37,	23,	-1,	46,	44,	28,	1,	16,	-1,	40,	-1,	-1,	13,	3,	-1,	-1,	15,	7,	47,	-1,	27,	38,	-1|
-1,	-1,	3,	16,	-1,	-1,	-1,	-1,	46,	-1,	-1,	-1,	-1,	15,	-1,	43,	42,	-1,	2,	-1,	-1,	-1,	7,	12,	40,	48,	-1,	-1,	10,	-1,	49,	-1,	-1,	14,	-1,	1,	-1,	45,	31,	33,	29,	44,	25,	39,	-1,	35,	-1,	28,	-1|
10,	44,	31,	15,	-1,	49,	12,	-1,	37,	-1,	-1,	-1,	-1,	7,	4,	-1,	14,	11,	-1,	-1,	-1,	-1,	-1,	1,	46,	6,	-1,	-1,	24,	-1,	40,	17,	21,	33,	26,	8,	35,	-1,	18,	-1,	2,	32,	48,	13,	-1,	-1,	16,	-1,	-1|
7,	-1,	-1,	-1,	40,	-1,	21,	-1,	25,	-1,	2,	-1,	-1,	-1,	-1,	-1,	45,	46,	9,	34,	-1,	-1,	-1,	27,	14,	-1,	17,	18,	-1,	11,	-1,	48,	3,	-1,	31,	-1,	-1,	39,	-1,	-1,	36,	-1,	-1,	-1,	-1,	-1,	42,	-1,	30|
17,	-1,	-1,	-1,	1,	-1,	-1,	40,	20,	-1,	6,	16,	35,	26,	-1,	-1,	-1,	-1,	-1,	33,	-1,	44,	-1,	-1,	5,	-1,	-1,	-1,	-1,	-1,	42,	2,	9,	-1,	15,	47,	-1,	-1,	34,	43,	-1,	22,	36,	-1,	-1,	-1,	-1,	8,	-1|
1,	-1,	-1,	21,	-1,	16,	-1,	25,	-1,	34,	48,	4,	31,	6,	47,	-1,	-1,	-1,	3,	-1,	-1,	-1,	-1,	-1,	-1,	14,	40,	39,	32,	30,	-1,	-1,	-1,	-1,	12,	41,	33,	15,	27,	-1,	9,	43,	26,	-1,	-1,	-1,	36,	-1,	-1|
23,	41,	-1,	27,	35,	-1,	-1,	-1,	43,	-1,	8,	-1,	-1,	40,	-1,	-1,	12,	-1,	-1,	-1,	-1,	-1,	6,	46,	-1,	1,	3,	10,	-1,	16,	19,	7,	-1,	-1,	-1,	-1,	44,	28,	11,	-1,	49,	-1,	38,	24,	25,	4,	-1,	-1,	-1|
-1,	-1,	-1,	-1,	34,	-1,	-1,	46,	7,	-1,	36,	27,	-1,	32,	25,	5,	-1,	-1,	-1,	9,	-1,	18,	21,	23,	44,	-1,	48,	22,	-1,	-1,	33,	31,	-1,	-1,	11,	19,	-1,	-1,	-1,	-1,	-1,	24,	-1,	35,	14,	17,	8,	43,	45|
42,	48,	36,	6,	30,	3,	17,	24,	-1,	22,	20,	23,	-1,	-1,	-1,	-1,	43,	-1,	-1,	7,	-1,	32,	4,	47,	-1,	-1,	15,	-1,	21,	35,	26,	-1,	-1,	-1,	13,	-1,	-1,	-1,	-1,	-1,	-1,	38,	40,	11,	-1,	-1,	44,	29,	46|
24,	-1,	44,	11,	-1,	-1,	-1,	21,	-1,	-1,	41,	3,	10,	-1,	23,	38,	-1,	-1,	26,	42,	-1,	-1,	-1,	-1,	35,	43,	19,	-1,	-1,	47,	6,	25,	-1,	18,	-1,	-1,	-1,	-1,	-1,	46,	-1,	13,	-1,	5,	-1,	-1,	-1,	-1,	34|
14,	-1,	-1,	32,	33,	-1,	-1,	-1,	16,	-1,	39,	-1,	-1,	-1,	-1,	30,	19,	-1,	-1,	6,	-1,	-1,	-1,	38,	-1,	25,	-1,	9,	-1,	-1,	48,	41,	-1,	-1,	-1,	5,	-1,	-1,	35,	-1,	4,	-1,	-1,	31,	37,	20,	15,	-1,	-1|
18,	25,	19,	4,	15,	-1,	-1,	-1,	-1,	29,	-1,	30,	-1,	-1,	21,	31,	13,	27,	-1,	-1,	-1,	41,	5,	-1,	36,	16,	33,	37,	-1,	-1,	43,	-1,	14,	-1,	3,	-1,	-1,	7,	-1,	26,	17,	-1,	-1,	28,	6,	-1,	10,	-1,	9|
-1,	-1,	27,	28,	6,	-1,	18,	-1,	-1,	-1,	1,	-1,	30,	-1,	34,	23,	26,	25,	44,	15,	37,	20,	9,	-1,	-1,	-1,	-1,	47,	-1,	-1,	-1,	-1,	-1,	46,	32,	3,	7,	2,	33,	41,	13,	-1,	-1,	-1,	-1,	14,	19,	-1,	8|
41,	17,	-1,	-1,	49,	-1,	29,	18,	-1,	-1,	47,	-1,	44,	38,	48,	2,	-1,	-1,	42,	-1,	-1,	-1,	11,	14,	-1,	-1,	-1,	7,	6,	-1,	20,	-1,	13,	-1,	8,	-1,	39,	-1,	12,	-1,	-1,	35,	-1,	33,	-1,	-1,	-1,	-1,	-1|
44,	7,	43,	8,	-1,	-1,	15,	20,	-1,	-1,	46,	-1,	-1,	17,	-1,	9,	47,	45,	12,	-1,	-1,	-1,	40,	5,	-1,	-1,	-1,	-1,	35,	-1,	21,	22,	-1,	39,	-1,	-1,	-1,	26,	-1,	-1,	42,	1,	-1,	3,	-1,	30,	31,	18,	28|
3,	37,	-1,	35,	-1,	36,	14,	-1,	19,	-1,	-1,	-1,	33,	-1,	24,	-1,	-1,	-1,	-1,	11,	-1,	-1,	-1,	15,	-1,	42,	-1,	1,	45,	-1,	-1,	26,	-1,	7,	29,	43,	-1,	5,	9,	-1,	38,	-1,	-1,	47,	2,	-1,	-1,	-1,	-1|
32,	11,	33,	42,	45,	-1,	26,	-1,	-1,	-1,	40,	14,	-1,	4,	-1,	3,	38,	20,	-1,	43,	1,	23,	39,	29,	18,	27,	-1,	-1,	-1,	19,	-1,	10,	-1,	12,	48,	16,	24,	-1,	-1,	-1,	-1,	46,	-1,	-1,	22,	36,	9,	-1,	-1|
5,	10,	-1,	19,	47,	-1,	39,	-1,	-1,	-1,	-1,	37,	-1,	-1,	28,	-1,	-1,	-1,	-1,	-1,	-1,	30,	-1,	-1,	38,	45,	-1,	31,	-1,	15,	-1,	-1,	40,	-1,	-1,	22,	-1,	-1,	32,	-1,	-1,	-1,	-1,	6,	1,	11,	-1,	24,	12|
-1,	-1,	-1,	46,	-1,	-1,	1,	-1,	32,	-1,	26,	25,	-1,	3,	-1,	41,	-1,	-1,	14,	-1,	-1,	-1,	-1,	-1,	10,	37,	6,	-1,	-1,	28,	-1,	16,	-1,	-1,	-1,	-1,	11,	40,	-1,	-1,	-1,	29,	-1,	-1,	7,	45,	-1,	21,	-1|
29,	-1,	-1,	-1,	-1,	43,	38,	-1,	-1,	-1,	44,	31,	-1,	-1,	-1,	14,	-1,	-1,	-1,	28,	-1,	-1,	-1,	-1,	-1,	-1,	32,	21,	-1,	26,	25,	-1,	-1,	15,	-1,	2,	-1,	9,	-1,	42,	47,	-1,	-1,	-1,	-1,	-1,	40,	-1,	23|
-1,	39,	18,	26,	-1,	-1,	23,	-1,	-1,	38,	-1,	-1,	5,	-1,	35,	-1,	-1,	-1,	25,	-1,	-1,	9,	13,	37,	16,	4,	20,	19,	46,	49,	14,	36,	48,	47,	24,	-1,	-1,	43,	17,	34,	40,	-1,	8,	-1,	-1,	32,	-1,	33,	-1|
25,	13,	34,	-1,	20,	-1,	42,	4,	36,	-1,	-1,	15,	-1,	47,	32,	29,	-1,	48,	-1,	23,	-1,	-1,	49,	-1,	3,	-1,	-1,	-1,	-1,	41,	-1,	9,	43,	35,	-1,	11,	-1,	31,	38,	39,	-1,	26,	2,	21,	19,	1,	-1,	-1,	22|
36,	-1,	15,	33,	27,	-1,	-1,	-1,	-1,	42,	32,	-1,	-1,	34,	-1,	-1,	-1,	5,	18,	-1,	9,	48,	17,	45,	-1,	-1,	-1,	-1,	8,	-1,	23,	-1,	-1,	-1,	6,	-1,	37,	-1,	-1,	-1,	-1,	19,	-1,	43,	26,	10,	25,	47,	49|
-1,	-1,	-1,	-1,	-1,	9,	-1,	-1,	2,	-1,	-1,	-1,	20,	-1,	-1,	-1,	10,	-1,	49,	-1,	-1,	-1,	-1,	26,	-1,	15,	12,	-1,	-1,	-1,	34,	19,	11,	-1,	38,	18,	21,	32,	-1,	13,	33,	36,	-1,	48,	30,	31,	-1,	35,	7|
-1,	30,	5,	2,	32,	17,	49,	8,	-1,	26,	19,	28,	25,	-1,	-1,	42,	44,	15,	-1,	12,	46,	-1,	22,	43,	39,	-1,	18,	-1,	-1,	-1,	1,	-1,	-1,	-1,	-1,	23,	-1,	-1,	-1,	14,	6,	7,	20,	36,	13,	9,	-1,	-1,	-1|
-1,	16,	10,	37,	28,	-1,	8,	9,	49,	43,	-1,	46,	-1,	-1,	45,	-1,	40,	26,	34,	3,	36,	5,	14,	-1,	24,	-1,	7,	-1,	-1,	13,	-1,	-1,	22,	-1,	-1,	35,	25,	4,	-1,	-1,	-1,	-1,	-1,	18,	-1,	15,	41,	-1,	29|
-1,	-1,	8,	43,	-1,	48,	-1,	-1,	14,	-1,	30,	-1,	24,	12,	-1,	-1,	-1,	-1,	-1,	49,	3,	26,	-1,	-1,	25,	22,	23,	-1,	2,	-1,	35,	13,	46,	11,	-1,	-1,	-1,	-1,	15,	-1,	-1,	-1,	9,	44,	33,	42,	21,	4,	47|
-1,	-1,	24,	-1,	42,	18,	27,	6,	-1,	36,	7,	34,	8,	-1,	19,	46,	-1,	38,	43,	29,	15,	12,	31,	41,	32,	-1,	9,	44,	14,	-1,	22,	-1,	-1,	49,	-1,	-1,	-1,	-1,	16,	-1,	-1,	39,	28,	37,	11,	3,	-1,	-1,	17|
-1,	21,	32,	36,	46,	41,	11,	28,	39,	-1,	15,	-1,	-1,	-1,	5,	47,	-1,	-1,	-1,	45,	8,	38,	3,	-1,	6,	-1,	42,	49,	37,	48,	24,	-1,	7,	43,	-1,	-1,	20,	17,	-1,	-1,	-1,	40,	29,	-1,	-1,	-1,	-1,	14,	10|
4,	26,	-1,	-1,	-1,	25,	-1,	19,	27,	-1,	23,	49,	48,	20,	-1,	-1,	22,	35,	21,	44,	11,	-1,	33,	7,	1,	-1,	24,	-1,	-1,	12,	-1,	-1,	-1,	-1,	-1,	-1,	-1,	36,	37,	-1,	-1,	-1,	-1,	-1,	-1,	34,	-1,	41,	-1|
-1,	-1,	7,	23,	13,	-1,	-1,	37,	47,	-1,	-1,	-1,	-1,	-1,	14,	28,	-1,	39,	33,	-1,	48,	-1,	43,	18,	8,	-1,	-1,	4,	9,	-1,	-1,	-1,	27,	1,	-1,	46,	-1,	-1,	3,	-1,	41,	42,	24,	-1,	36,	12,	-1,	-1,	15|
-1,	-1,	37,	22,	-1,	-1,	28,	-1,	35,	41,	-1,	-1,	43,	13,	27,	7,	16,	-1,	-1,	-1,	42,	14,	-1,	39,	20,	40,	-1,	46,	23,	-1,	31,	32,	-1,	-1,	-1,	33,	8,	34,	21,	29,	12,	11,	-1,	25,	-1,	-1,	-1,	-1,	-1|
39,	-1,	-1,	-1,	14,	-1,	33,	-1,	-1,	-1,	-1,	45,	32,	42,	13,	20,	9,	-1,	30,	-1,	-1,	-1,	-1,	-1,	-1,	21,	-1,	-1,	-1,	25,	36,	-1,	-1,	41,	47,	4,	43,	27,	24,	-1,	-1,	-1,	46,	-1,	8,	-1,	7,	1,	-1|
30,	5,	-1,	-1,	17,	19,	9,	32,	-1,	15,	16,	39,	-1,	-1,	-1,	-1,	-1,	-1,	-1,	37,	38,	31,	48,	28,	33,	41,	-1,	35,	-1,	-1,	4,	-1,	-1,	36,	14,	-1,	42,	-1,	-1,	22,	20,	3,	6,	26,	24,	43,	45,	-1,	-1|
-1,	15,	-1,	-1,	-1,	27,	25,	-1,	-1,	6,	-1,	36,	-1,	-1,	-1,	8,	-1,	19,	-1,	-1,	-1,	43,	18,	-1,	13,	47,	-1,	-1,	-1,	9,	39,	-1,	20,	3,	-1,	-1,	10,	35,	40,	-1,	7,	23,	37,	-1,	-1,	21,	-1,	11,	48|
-1,	-1,	-1,	49,	-1,	28,	-1,	-1,	33,	-1,	-1,	-1,	37,	-1,	22,	34,	1,	-1,	48,	-1,	-1,	-1,	-1,	-1,	15,	-1,	46,	-1,	-1,	-1,	2,	11,	-1,	-1,	7,	26,	47,	41,	-1,	24,	-1,	-1,	-1,	20,	3,	-1,	-1,	13,	-1|
-1,	4,	-1,	29,	-1,	44,	41,	-1,	24,	-1,	13,	-1,	49,	-1,	3,	-1,	31,	-1,	-1,	32,	25,	-1,	2,	-1,	21,	-1,	45,	-1,	26,	-1,	10,	43,	6,	34,	46,	39,	16,	33,	-1,	19,	28,	-1,	30,	-1,	-1,	47,	-1,	12,	-1|
-1,	45,	35,	20,	-1,	32,	16,	-1,	-1,	-1,	5,	-1,	-1,	28,	-1,	12,	-1,	33,	-1,	-1,	30,	-1,	-1,	3,	-1,	36,	-1,	26,	-1,	-1,	-1,	24,	19,	21,	-1,	-1,	-1,	14,	-1,	-1,	-1,	34,	42,	8,	-1,	-1,	4,	46,	18|
46,	-1,	13,	-1,	-1,	39,	-1,	43,	1,	8,	-1,	-1,	3,	29,	20,	26,	6,	42,	36,	-1,	14,	-1,	-1,	44,	-1,	-1,	-1,	-1,	-1,	31,	-1,	35,	-1,	-1,	-1,	-1,	9,	-1,	-1,	-1,	15,	-1,	-1,	-1,	10,	-1,	2,	-1,	41|
-1,	-1,	21,	3,	-1,	23,	2,	34,	26,	-1,	45,	-1,	46,	18,	-1,	-1,	-1,	-1,	39,	41,	-1,	-1,	38,	-1,	37,	12,	10,	24,	-1,	-1,	15,	-1,	16,	27,	25,	36,	5,	13,	44,	-1,	-1,	17,	-1,	14,	-1,	-1,	-1,	-1,	31|];
