sudoku-ls/benchmarks_LEQ/INST_49x49/50/inst49x49_50_88.txt
7
1
-1	-1	-1	-1	-1	-1	31	-1	-1	20	-1	2	9	-1	-1	27	35	-1	-1	-1	39	40	26	21	45	8	-1	-1	-1	-1	-1	-1	23	32	41	12	18	22	42	11	-1	-1	-1	-1	44	-1	-1	-1	-1
13	-1	-1	5	-1	-1	48	-1	-1	30	31	8	-1	14	11	-1	34	12	-1	46	22	27	-1	36	-1	38	39	15	42	-1	7	-1	-1	44	-1	24	6	-1	25	40	-1	-1	-1	9	-1	-1	23	-1	26
21	19	-1	39	-1	-1	-1	26	-1	-1	11	-1	-1	-1	-1	-1	41	-1	32	31	18	46	37	20	-1	-1	1	-1	-1	-1	-1	-1	34	40	16	38	30	49	-1	-1	-1	45	-1	29	-1	8	13	-1	-1
-1	9	11	38	-1	40	-1	17	6	7	37	35	23	39	-1	-1	48	-1	4	-1	-1	-1	-1	-1	41	-1	25	-1	12	-1	46	21	18	-1	22	-1	-1	20	26	5	-1	15	-1	10	-1	-1	1	-1	14
-1	8	-1	-1	-1	33	-1	-1	45	13	24	18	-1	41	6	-1	25	-1	28	14	-1	7	-1	-1	23	-1	43	-1	11	17	-1	38	15	19	49	-1	-1	44	-1	-1	37	-1	-1	-1	20	46	3	-1	39
35	46	16	7	29	-1	-1	44	-1	-1	42	-1	-1	-1	-1	-1	-1	-1	1	-1	-1	13	10	-1	-1	-1	14	-1	-1	6	-1	-1	-1	26	30	-1	41	-1	28	-1	39	-1	-1	-1	-1	-1	-1	40	-1
-1	20	-1	-1	-1	-1	-1	-1	34	-1	-1	-1	15	-1	-1	44	3	17	-1	-1	5	28	29	33	-1	18	-1	11	-1	27	45	39	-1	48	1	13	-1	-1	-1	-1	-1	31	-1	12	-1	38	22	-1	25
-1	-1	-1	-1	-1	-1	46	-1	23	-1	21	-1	-1	31	-1	-1	-1	-1	15	-1	-1	29	47	16	-1	-1	-1	20	27	-1	5	-1	-1	-1	-1	-1	-1	42	4	7	-1	9	22	-1	-1	6	14	37	-1
11	-1	-1	45	-1	-1	-1	-1	41	3	-1	-1	-1	1	7	-1	37	-1	5	-1	-1	-1	-1	-1	9	-1	4	8	-1	-1	13	34	39	6	23	-1	-1	46	14	15	27	25	-1	-1	31	26	33	19	-1
-1	18	-1	25	8	35	-1	-1	-1	10	-1	-1	-1	-1	-1	-1	-1	31	-1	20	-1	45	42	-1	-1	33	37	23	-1	46	-1	-1	1	-1	4	40	-1	-1	13	-1	-1	41	-1	7	-1	-1	27	-1	-1
-1	27	-1	-1	5	-1	6	36	-1	-1	34	11	-1	15	-1	-1	42	30	2	22	23	21	7	12	40	-1	13	38	-1	20	49	8	-1	14	37	1	19	45	31	33	-1	-1	25	39	-1	35	-1	28	24
10	44	-1	-1	39	49	12	42	37	-1	-1	43	-1	-1	4	25	14	-1	-1	-1	-1	3	34	-1	46	-1	-1	-1	24	29	-1	-1	21	-1	26	8	-1	23	-1	-1	-1	-1	-1	13	-1	5	-1	9	-1
-1	-1	4	13	40	-1	-1	-1	25	32	-1	-1	-1	-1	26	49	45	46	9	34	35	-1	15	27	14	-1	17	-1	43	11	-1	48	3	22	-1	-1	-1	-1	5	6	36	-1	12	1	23	44	-1	10	-1
17	-1	-1	48	-1	-1	19	40	-1	24	-1	-1	35	26	-1	-1	32	13	27	-1	28	44	-1	-1	5	-1	-1	25	30	-1	-1	-1	-1	-1	-1	-1	49	-1	34	-1	21	-1	-1	-1	46	-1	-1	-1	-1
1	-1	-1	21	-1	16	45	-1	5	-1	48	4	-1	6	-1	-1	49	-1	-1	-1	44	42	20	13	11	14	40	-1	-1	-1	17	46	-1	10	12	-1	-1	-1	27	8	9	43	-1	-1	18	-1	36	23	-1
23	-1	-1	-1	35	-1	-1	-1	-1	14	8	-1	-1	-1	33	39	12	-1	22	-1	-1	-1	6	46	-1	1	3	10	34	16	19	-1	-1	-1	-1	-1	-1	-1	11	45	-1	-1	-1	-1	-1	-1	-1	-1	21
-1	12	39	-1	-1	-1	-1	-1	-1	49	-1	-1	-1	32	25	-1	15	-1	20	-1	40	18	-1	-1	-1	-1	-1	22	1	42	-1	31	-1	-1	11	19	2	-1	-1	-1	-1	24	41	35	14	17	8	43	45
42	-1	-1	-1	30	3	17	-1	9	22	20	23	-1	19	10	45	43	-1	41	-1	16	32	-1	-1	-1	-1	15	-1	21	35	-1	-1	-1	-1	13	25	-1	37	39	-1	-1	38	40	-1	12	33	-1	-1	46
-1	31	44	11	9	8	7	-1	-1	33	-1	3	-1	-1	-1	-1	2	36	26	-1	4	17	45	30	-1	-1	19	29	15	-1	-1	-1	-1	-1	39	-1	40	-1	-1	-1	32	13	1	5	16	22	-1	-1	34
-1	-1	-1	-1	-1	2	-1	11	-1	44	39	-1	-1	-1	1	-1	19	8	46	6	17	24	12	38	-1	25	-1	9	29	-1	-1	41	28	23	27	5	36	-1	35	21	4	-1	-1	31	-1	-1	-1	42	13
18	25	-1	4	15	-1	20	1	12	-1	-1	-1	38	2	21	31	-1	-1	-1	-1	34	-1	5	-1	36	-1	33	-1	44	40	43	45	14	-1	-1	-1	-1	-1	-1	26	-1	-1	-1	-1	-1	39	-1	-1	-1
16	22	27	-1	6	-1	18	-1	31	35	1	-1	-1	43	-1	23	26	25	44	15	-1	-1	9	-1	-1	-1	-1	47	38	-1	11	-1	-1	46	32	3	-1	-1	33	41	13	-1	-1	-1	-1	14	-1	5	-1
41	17	-1	-1	-1	24	29	-1	15	-1	47	-1	-1	-1	-1	-1	27	-1	42	5	10	-1	11	14	-1	-1	-1	-1	-1	34	-1	-1	-1	9	8	31	39	21	-1	36	-1	-1	23	33	43	37	46	25	4
-1	-1	-1	-1	4	38	-1	20	-1	23	-1	-1	-1	-1	16	-1	47	-1	-1	19	-1	-1	-1	5	-1	32	41	-1	35	14	21	-1	-1	39	-1	49	-1	-1	-1	37	42	1	34	3	-1	30	-1	18	-1
-1	-1	25	35	-1	36	14	49	19	-1	-1	6	-1	16	-1	-1	21	18	-1	11	13	4	46	-1	-1	-1	-1	1	-1	44	-1	26	41	-1	29	-1	-1	-1	9	28	-1	30	10	47	2	-1	-1	-1	32
32	11	33	42	45	34	26	5	-1	-1	-1	14	-1	-1	-1	3	-1	-1	-1	-1	1	23	-1	29	-1	27	-1	28	49	19	37	10	-1	-1	-1	-1	24	6	-1	17	-1	-1	13	-1	22	-1	9	-1	-1
5	-1	9	19	47	-1	-1	-1	-1	21	27	-1	-1	-1	28	33	46	7	29	8	49	-1	-1	25	-1	-1	35	-1	-1	-1	3	23	40	2	-1	22	34	-1	-1	-1	14	-1	16	6	-1	-1	-1	-1	12
48	-1	20	46	2	12	-1	-1	-1	9	26	25	-1	-1	-1	-1	-1	-1	14	39	-1	22	-1	49	10	37	6	-1	47	-1	18	16	5	-1	-1	15	-1	-1	19	44	8	29	-1	-1	7	-1	-1	21	-1
-1	-1	48	-1	-1	43	-1	33	13	37	44	-1	6	-1	-1	-1	30	-1	-1	28	20	36	8	-1	27	34	-1	-1	-1	26	25	18	17	-1	10	-1	45	9	49	-1	-1	-1	-1	-1	4	-1	40	3	23
31	39	-1	-1	-1	-1	23	-1	29	-1	3	-1	5	-1	-1	-1	-1	41	-1	-1	7	9	13	-1	-1	4	-1	-1	46	49	14	-1	-1	47	-1	44	-1	43	17	-1	40	-1	-1	45	28	32	12	33	42
-1	-1	-1	-1	20	7	-1	-1	-1	45	-1	15	12	47	32	-1	-1	48	-1	23	-1	10	-1	6	-1	28	44	40	-1	41	30	9	-1	-1	-1	-1	46	31	38	-1	24	26	-1	21	19	1	37	17	-1
36	-1	-1	-1	-1	11	-1	7	-1	42	-1	1	39	34	31	13	-1	5	18	-1	-1	48	17	-1	-1	46	38	-1	-1	3	-1	-1	12	29	-1	28	-1	16	-1	20	22	19	14	43	-1	10	25	-1	-1
-1	3	-1	40	-1	-1	44	-1	2	16	14	41	20	-1	37	4	10	43	49	-1	-1	1	25	26	29	-1	-1	-1	-1	-1	34	-1	-1	-1	38	18	-1	32	-1	-1	-1	36	-1	-1	30	31	-1	-1	7
45	30	5	2	32	17	49	-1	-1	26	19	-1	-1	35	38	-1	44	15	16	-1	-1	47	-1	43	39	11	-1	41	4	-1	-1	-1	-1	31	21	-1	-1	29	10	-1	-1	-1	-1	-1	13	9	24	-1	27
19	16	10	37	28	47	8	9	-1	43	17	-1	21	-1	-1	-1	-1	26	-1	-1	-1	5	14	31	-1	23	-1	33	-1	13	-1	27	-1	-1	2	-1	25	-1	30	-1	-1	-1	-1	-1	38	-1	-1	39	-1
-1	29	8	-1	-1	48	5	-1	14	-1	-1	-1	24	12	41	-1	-1	-1	-1	49	3	-1	27	19	25	22	-1	45	-1	39	35	-1	46	11	-1	-1	38	1	-1	-1	10	-1	9	-1	33	42	21	4	47
40	2	-1	1	42	18	-1	-1	21	-1	-1	34	8	-1	-1	-1	-1	38	43	-1	15	12	-1	41	32	-1	9	44	-1	-1	22	20	4	-1	-1	-1	13	-1	-1	-1	-1	-1	-1	-1	11	-1	35	-1	17
-1	21	32	-1	-1	-1	11	28	39	1	-1	26	-1	-1	-1	47	4	-1	-1	45	-1	38	-1	2	6	-1	42	49	37	48	24	30	-1	43	-1	-1	20	-1	-1	-1	44	-1	29	23	-1	-1	18	14	10
4	-1	-1	9	-1	25	30	19	-1	46	-1	49	-1	20	2	32	-1	35	21	44	11	-1	-1	-1	-1	13	-1	-1	28	-1	8	29	10	38	42	45	-1	-1	-1	-1	-1	-1	-1	-1	5	34	43	-1	-1
-1	34	-1	-1	13	-1	-1	-1	47	-1	10	38	-1	-1	-1	-1	17	-1	-1	-1	48	-1	-1	-1	8	-1	-1	-1	9	21	16	6	-1	-1	40	46	26	-1	-1	-1	-1	42	-1	32	36	-1	20	-1	-1
-1	38	37	-1	-1	-1	28	3	-1	-1	-1	-1	43	-1	27	-1	-1	1	24	26	42	14	-1	-1	20	40	47	-1	23	5	31	-1	-1	-1	-1	-1	8	34	-1	29	12	-1	45	-1	-1	-1	-1	48	6
-1	-1	-1	44	-1	31	33	2	18	11	29	-1	32	-1	-1	20	-1	40	-1	-1	-1	37	-1	34	-1	-1	28	5	-1	-1	-1	15	26	-1	-1	-1	43	27	-1	-1	23	49	46	22	-1	-1	-1	1	-1
30	5	12	-1	-1	19	-1	-1	11	15	-1	-1	2	-1	40	-1	-1	49	-1	-1	-1	31	48	-1	33	-1	-1	35	-1	-1	-1	-1	29	36	-1	-1	-1	-1	-1	22	-1	-1	-1	-1	-1	-1	45	-1	-1
-1	-1	1	-1	-1	27	-1	14	17	6	-1	36	-1	30	-1	-1	5	19	-1	-1	2	-1	18	-1	13	-1	-1	16	-1	-1	-1	-1	-1	3	44	32	10	35	40	-1	-1	-1	-1	38	34	21	28	-1	48
6	-1	14	49	-1	-1	36	-1	-1	31	-1	12	-1	10	-1	-1	1	44	48	-1	21	25	-1	17	-1	9	-1	-1	-1	32	-1	-1	45	5	-1	-1	-1	41	-1	24	18	-1	35	20	3	23	-1	-1	16
-1	-1	22	29	-1	-1	41	35	-1	48	-1	-1	49	9	-1	-1	31	-1	17	32	25	8	-1	40	21	-1	45	-1	-1	-1	-1	-1	6	34	46	-1	-1	-1	1	-1	28	37	30	27	15	-1	-1	12	36
37	-1	35	-1	-1	32	-1	-1	44	47	-1	-1	-1	28	-1	-1	29	-1	13	27	-1	-1	1	3	22	-1	11	-1	48	-1	38	24	-1	-1	17	-1	-1	14	2	-1	43	-1	42	-1	9	-1	-1	46	18
46	-1	13	18	48	-1	47	43	1	8	-1	-1	3	29	20	26	-1	-1	-1	16	-1	-1	-1	44	49	7	5	-1	-1	31	-1	35	30	-1	28	27	-1	-1	-1	38	-1	-1	17	-1	10	40	-1	22	41
8	40	-1	3	-1	-1	2	-1	26	-1	-1	20	-1	-1	9	-1	28	47	-1	41	43	-1	-1	4	-1	12	-1	-1	-1	-1	-1	42	-1	27	-1	36	5	-1	44	-1	30	-1	33	-1	-1	-1	49	7	-1
49 
49 30 5 13
9 49 5 1
28 14 14 49
22 32 46 2
16 6 18 32
49 22 1 48
36 36 17 9
25 27 8 17
38 36 44 30
27 2 14 16
41 42 14 24
33 27 24 19
4 34 45 48
42 5 3 32
15 38 24 7
13 42 31 29
36 10 6 36
16 20 18 13
21 3 41 5
35 29 26 18
43 36 26 27
35 33 49 29
32 31 44 42
44 20 49 28
38 40 26 41
11 6 24 38
33 14 28 43
45 6 16 38
10 21 49 46
16 48 36 11
25 5 4 26
15 29 29 27
25 13 17 31
10 1 8 44
8 35 30 15
1 2 3 48
20 45 17 7
29 7 46 1
29 15 27 7
25 19 45 29
43 26 32 39
13 47 28 44
46 32 43 46
16 37 41 33
28 46 32 24
24 11 1 14
1 8 45 37
11 26 6 45
37 34 10 46
